(set-logic QF_S)
(declare-fun V16 () String )
(declare-fun V9 () String )
(declare-fun V13 () String )
(declare-fun V1 () String )
(declare-fun V15 () String )
(declare-fun V2 () String )
(declare-fun V14 () String )
(declare-fun V10 () String )
(declare-fun V11 () String )
(assert (= (str.++ V1 V2 ) (str.++ (str.++ V9 "A" ) V10 ) ) )
(assert (= (str.++ V1 V2 ) (str.++ (str.++ V13 "A" ) V14 ) ) )
(assert (= (str.++ (str.++ V1 V2 ) V11 ) (str.++ (str.++ V15 ":" ) V16 ) ) )
( check-sat )
